outputs/case_312.model.txt
total_assets_excluding_investment_type = 1000000
authority_orders_change_submission_method = False
risk_capital = 1000000
owner_equity = 500000
minor_violation_of_submission_method = False
sales_suspended_until_resubmission_complete = False
own_capital = 1000000
life_insurance_risk_control_complied = True
rate_pricing_adequate_reasonable_fair = True
rate_reference_data_relevant = True
corrections_completed_within_35_working_days = True
act_144_board_approval_obtained = True
internal_control_executed = True
submission_preparation_done = True
internal_handling_established_and_executed = True
signing_report_fair_and_true = True
internal_control_established = True
sales_limit_meets_risk_tolerance = True
rate_reference_data_original_obtained = True
actuarial_staff_hired = True
signing_actuary_assigned = True
risk_assessment_results_appropriate = True
product_content_major_violation = False
capital_level = 0
rate_meets_authority_check_mechanism = True
act_144_reports_fair_and_true = True
training_includes_customer_characteristics_guidance = True
rate_reference_data_domestic_dominant = True
training_includes_unsuitable_customer_guidance = True
training_includes_65_plus_customer_guidance = True
life_insurance_rate_setting_complied = True
training_conducted = True
actuarial_data_online_and_checked = True
product_review_meeting_held = True
serious_violation_of_specified_articles = False
rate_reflects_cost_and_profit = True
property_insurance_rate_setting_complied = True
capital_adequacy_ratio = 100
product_minor_violation_may_require_change_and_suspend = False
management_meeting_held = True
sales_limit_warning_and_control_mechanism_included = True
rate_reference_data_recent_3_to_5_years = True
internal_handling_established = True
rate_reference_data_collected = True
record_sent_to_general_manager = True
act_144_actuarial_staff_assigned = True
assumption_reasonableness_checked = True
review_meeting_held = True
signing_actuary_board_approved = True
external_review_board_approved = True
documents_printed = True
signed_by_authorized_person = True
product_design_procedures_complied = True
life_insurance_risk_assessment_complied = True
rejected_three_times_cumulative = False
submission_data_false = False
property_insurance_risk_control_complied = True
internal_control_established_and_executed = True
internal_handling_executed = True
external_review_report_fair_and_true = True
sales_preparation_procedures_complied = True
submission_method_compliant = True
product_management_meeting_held_and_checked = True
product_research_done = True
formal_development_done = True
policy_and_calculation_consistent = True
corrections_completed_within_65_working_days = True
rate_not_unreasonable_pricing = True
reported_to_authority = True
risk_control_and_reinsurance_arranged = True
meeting_recorded = True
required_procedures_followed = True
profit_indicators_checked = True
product_may_be_rejected_or_sales_stopped = False
product_content_major_error_or_omission = False
items_consistent_with_evaluation_results = True
product_info_disclosed = True
net_worth_ratio = 50
external_review_actuary_hired = True
penalty = False
sales_preparation_procedures_followed = True
information_system_configured_and_tested = True
authorized_person_false_or_major_error_statement = False
reinsurance_arrangement_evaluated = True
act_144_external_review_engaged = True
required_documents_missing_or_not_corrected_in_time = False